334 5
10 10 10 10 10 

0 0 0 0 0 0 4 2 14 26 38 
0 0 0 0 0 0 2 3 5 
1 0 0 0 4 0 1 4 
1 0 0 0 10 0 1 6 
4 0 0 0 7 0 1 6 
6 0 0 0 5 0 2 9 7 
4 0 0 0 10 0 1 8 
9 0 0 0 10 0 1 10 
2 0 0 0 10 0 1 10 
2 0 0 0 6 0 2 12 11 
8 0 0 0 3 0 1 13 
9 0 0 0 10 0 1 13 
0 0 0 0 0 0 1 50 
0 0 0 0 0 0 2 15 20 
6 0 0 0 2 0 2 19 16 
9 0 0 0 7 0 1 17 
6 0 0 0 10 0 2 21 18 
10 0 0 0 9 0 1 22 
8 0 0 0 7 0 1 21 
4 0 0 0 10 0 1 21 
1 0 0 0 10 0 1 23 
8 0 0 0 6 0 1 23 
5 0 0 0 4 0 1 24 
8 0 0 0 10 0 1 25 
0 0 0 0 0 0 1 50 
0 0 0 0 0 0 1 27 
2 3 0 0 0 0 2 29 28 
7 8 0 0 0 0 2 36 30 
4 10 0 0 0 0 2 36 31 
10 3 0 0 0 0 1 31 
10 5 0 0 0 0 2 35 32 
7 10 0 0 0 0 1 33 
2 8 0 0 0 0 1 34 
3 8 0 0 0 0 1 37 
7 10 0 0 0 0 1 37 
8 10 0 0 0 0 1 37 
0 0 0 0 0 0 1 50 
0 0 0 0 0 0 1 39 
9 0 0 4 0 0 2 42 40 
8 0 0 8 0 0 1 41 
7 0 0 10 0 0 2 47 43 
2 0 0 10 0 0 2 48 43 
10 0 0 10 0 0 1 44 
6 0 0 7 0 0 1 45 
2 0 0 6 0 0 1 46 
1 0 0 4 0 0 1 49 
3 0 0 10 0 0 1 49 
4 0 0 6 0 0 1 49 
0 0 0 0 0 0 1 50 
0 0 0 0 0 0 4 51 63 75 87 
0 0 0 0 0 0 2 52 56 
7 0 0 0 2 0 1 53 
4 0 0 0 9 0 1 54 
9 0 0 0 10 0 1 55 
9 0 0 0 5 0 3 61 60 57 
5 0 0 0 9 0 3 61 60 57 
1 0 0 0 7 0 1 58 
4 0 0 0 7 0 1 59 
8 0 0 0 9 0 1 62 
3 0 0 0 7 0 1 62 
9 0 0 0 10 0 1 62 
0 0 0 0 0 0 1 99 
0 0 0 0 0 0 1 64 
4 0 0 5 0 0 2 68 65 
3 0 0 4 0 0 1 66 
7 0 0 6 0 0 1 67 
8 0 0 10 0 0 2 72 69 
7 0 0 7 0 0 2 73 69 
10 0 0 5 0 0 1 70 
2 0 0 10 0 0 1 71 
4 0 0 10 0 0 1 74 
9 0 0 10 0 0 1 74 
8 0 0 8 0 0 1 74 
0 0 0 0 0 0 1 99 
0 0 0 0 0 0 1 76 
4 0 0 0 0 2 2 78 77 
3 0 0 0 0 7 1 79 
4 0 0 0 0 9 1 79 
5 0 0 0 0 8 1 80 
9 0 0 0 0 10 2 83 81 
6 0 0 0 0 3 2 84 82 
2 0 0 0 0 6 1 85 
2 0 0 0 0 10 1 84 
1 0 0 0 0 10 1 86 
8 0 0 0 0 10 1 86 
0 0 0 0 0 0 1 99 
0 0 0 0 0 0 1 88 
1 3 0 0 0 0 1 89 
9 9 0 0 0 0 1 90 
3 4 0 0 0 0 3 94 93 91 
3 10 0 0 0 0 1 92 
5 8 0 0 0 0 2 97 95 
4 10 0 0 0 0 2 97 95 
3 7 0 0 0 0 1 95 
3 6 0 0 0 0 1 96 
6 8 0 0 0 0 1 98 
3 10 0 0 0 0 1 98 
0 0 0 0 0 0 1 99 
0 0 0 0 0 0 4 100 132 144 176 
0 0 0 0 0 0 2 101 130 
7 0 6 0 4 2 1 102 
5 0 6 0 10 4 1 103 
6 0 9 0 6 6 1 104 
10 0 5 0 9 4 1 105 
7 0 10 0 8 10 2 129 106 
2 0 9 0 8 4 1 107 
5 0 6 0 6 9 1 108 
3 0 6 0 8 6 5 128 127 126 114 109 
4 0 8 0 10 8 1 110 
5 0 7 0 4 8 2 115 111 
9 0 7 0 5 10 1 112 
2 0 6 0 3 10 1 113 
5 0 10 0 5 4 2 125 116 
6 0 9 0 10 10 2 117 115 
10 0 10 0 5 8 2 125 118 
7 0 6 0 8 5 1 117 
2 0 8 0 10 9 1 118 
2 0 8 0 7 9 1 119 
1 0 6 0 9 5 1 120 
5 0 5 0 9 8 1 121 
6 0 6 0 9 10 1 122 
6 0 7 0 6 10 1 123 
3 0 3 0 9 7 1 124 
5 0 9 0 10 10 1 131 
4 0 9 0 10 7 1 131 
4 0 5 0 6 8 1 131 
1 0 10 0 10 8 1 131 
2 0 10 0 3 10 1 131 
5 0 10 0 8 8 1 131 
1 0 9 0 10 8 1 131 
0 0 0 0 0 0 1 334 
0 0 0 0 0 0 2 133 134 
8 0 3 0 0 0 2 136 135 
8 0 10 0 0 0 1 135 
9 0 3 0 0 0 1 137 
8 0 9 0 0 0 1 137 
10 0 9 0 0 0 1 138 
1 0 7 0 0 0 2 142 139 
10 0 10 0 0 0 1 140 
5 0 10 0 0 0 1 141 
4 0 4 0 0 0 1 143 
5 0 10 0 0 0 1 143 
0 0 0 0 0 0 4 208 230 252 264 
0 0 0 0 0 0 6 145 170 171 172 173 174 
8 3 0 1 4 0 2 169 146 
7 7 0 10 7 0 2 168 147 
4 3 0 10 4 0 1 148 
10 5 0 8 10 0 1 149 
1 9 0 5 7 0 1 150 
4 10 0 10 7 0 1 151 
7 8 0 7 10 0 1 152 
7 2 0 6 6 0 2 167 153 
10 5 0 9 7 0 1 154 
5 3 0 6 7 0 1 155 
6 10 0 7 6 0 1 156 
5 10 0 8 10 0 1 157 
6 10 0 10 9 0 1 158 
6 10 0 9 7 0 1 159 
9 6 0 10 7 0 1 160 
9 3 0 5 10 0 1 161 
7 6 0 10 6 0 1 162 
5 10 0 10 8 0 1 163 
5 9 0 6 10 0 1 164 
9 10 0 7 8 0 1 165 
6 10 0 9 10 0 1 166 
6 6 0 6 4 0 1 175 
5 10 0 9 10 0 1 175 
1 9 0 9 5 0 1 175 
6 10 0 5 10 0 1 175 
6 10 0 10 8 0 1 175 
3 5 0 5 8 0 1 175 
5 7 0 6 6 0 1 175 
4 9 0 9 8 0 1 175 
4 10 0 3 6 0 1 175 
0 0 0 0 0 0 1 334 
0 0 0 0 0 0 2 177 183 
9 0 0 3 10 4 1 178 
3 0 0 6 5 7 2 181 179 
4 0 0 8 6 9 1 180 
8 0 0 9 5 6 1 182 
9 0 0 5 4 5 1 182 
9 0 0 6 10 8 2 189 184 
6 0 0 6 7 4 2 189 184 
6 0 0 10 4 5 1 185 
7 0 0 8 7 10 2 198 186 
5 0 0 5 10 8 1 187 
10 0 0 10 8 8 1 188 
10 0 0 10 4 10 2 196 191 
5 0 0 7 6 7 1 190 
9 0 0 9 10 5 1 191 
1 0 0 5 6 8 1 192 
3 0 0 9 8 6 3 206 202 193 
10 0 0 7 3 10 1 194 
9 0 0 9 6 10 1 195 
9 0 0 9 9 10 1 197 
6 0 0 8 10 10 1 197 
5 0 0 9 9 8 1 199 
3 0 0 8 8 5 2 206 202 
2 0 0 4 8 9 1 200 
4 0 0 8 10 7 1 201 
3 0 0 8 10 9 1 203 
6 0 0 6 7 8 1 203 
8 0 0 10 10 5 1 204 
8 0 0 10 9 10 1 205 
9 0 0 4 10 8 1 207 
9 0 0 9 6 6 1 207 
0 0 0 0 0 0 1 334 
0 0 0 0 0 0 3 209 212 213 
2 0 6 0 0 5 1 210 
8 0 6 0 0 8 1 211 
7 0 7 0 0 6 2 228 214 
6 0 7 0 0 3 2 228 214 
1 0 3 0 0 9 3 228 222 216 
6 0 5 0 0 10 1 215 
7 0 10 0 0 9 2 222 216 
8 0 9 0 0 8 1 217 
4 0 10 0 0 10 1 218 
3 0 9 0 0 4 1 219 
3 0 10 0 0 8 2 227 220 
3 0 5 0 0 10 1 221 
7 0 8 0 0 10 1 223 
6 0 8 0 0 8 1 223 
5 0 8 0 0 6 1 224 
1 0 6 0 0 10 1 225 
3 0 10 0 0 5 1 226 
3 0 7 0 0 8 1 229 
10 0 10 0 0 4 1 229 
6 0 6 0 0 9 1 229 
0 0 0 0 0 0 1 334 
0 0 0 0 0 0 3 231 240 250 
10 2 0 6 0 0 3 249 243 232 
8 6 0 3 0 0 1 233 
4 6 0 8 0 0 1 234 
8 8 0 10 0 0 1 235 
2 8 0 7 0 0 1 236 
4 3 0 4 0 0 1 237 
5 10 0 5 0 0 1 238 
10 10 0 9 0 0 1 239 
6 7 0 10 0 0 2 248 241 
7 6 0 10 0 0 1 241 
7 10 0 6 0 0 1 242 
10 10 0 10 0 0 1 244 
6 8 0 6 0 0 1 244 
9 10 0 9 0 0 1 245 
9 8 0 8 0 0 1 246 
6 2 0 6 0 0 1 247 
1 8 0 7 0 0 1 251 
10 10 0 10 0 0 1 251 
10 9 0 8 0 0 1 251 
6 9 0 8 0 0 1 251 
0 0 0 0 0 0 1 334 
0 0 0 0 0 0 1 253 
8 0 0 5 0 0 2 257 254 
2 0 0 3 0 0 2 259 255 
2 0 0 6 0 0 1 256 
1 0 0 5 0 0 2 262 258 
8 0 0 10 0 0 2 259 258 
6 0 0 10 0 0 1 260 
9 0 0 10 0 0 1 260 
1 0 0 10 0 0 1 261 
6 0 0 10 0 0 1 263 
4 0 0 6 0 0 1 263 
0 0 0 0 0 0 4 286 298 310 322 
0 0 0 0 0 0 3 265 267 271 
9 0 8 0 0 7 1 266 
3 0 5 0 0 10 1 268 
2 0 3 0 0 7 2 273 270 
2 0 9 0 0 9 1 269 
7 0 6 0 0 5 1 270 
3 0 6 0 0 8 1 272 
9 0 4 0 0 6 1 272 
1 0 9 0 0 7 2 277 274 
10 0 9 0 0 7 2 277 275 
6 0 10 0 0 5 1 275 
4 0 6 0 0 10 1 276 
8 0 10 0 0 10 2 284 278 
10 0 7 0 0 10 2 284 278 
8 0 8 0 0 10 1 279 
1 0 7 0 0 7 1 280 
5 0 3 0 0 6 1 281 
10 0 10 0 0 7 1 282 
4 0 10 0 0 7 1 283 
2 0 10 0 0 7 1 285 
8 0 10 0 0 5 1 285 
0 0 0 0 0 0 1 334 
0 0 0 0 0 0 2 287 288 
4 0 0 0 7 0 3 291 290 289 
4 0 0 0 4 0 1 289 
3 0 0 0 3 0 1 292 
4 0 0 0 10 0 1 292 
9 0 0 0 9 0 1 292 
9 0 0 0 9 0 1 293 
2 0 0 0 9 0 1 294 
10 0 0 0 5 0 1 295 
2 0 0 0 10 0 1 296 
5 0 0 0 9 0 1 297 
0 0 0 0 0 0 1 334 
0 0 0 0 0 0 2 299 301 
5 4 0 0 0 0 1 300 
9 6 0 0 0 0 2 303 302 
8 3 0 0 0 0 2 304 303 
10 10 0 0 0 0 2 306 304 
5 10 0 0 0 0 2 306 305 
9 10 0 0 0 0 1 305 
6 9 0 0 0 0 1 307 
10 5 0 0 0 0 1 307 
3 10 0 0 0 0 1 308 
10 8 0 0 0 0 1 309 
0 0 0 0 0 0 1 334 
0 0 0 0 0 0 1 311 
2 0 5 0 0 0 1 312 
2 0 5 0 0 0 2 315 313 
4 0 6 0 0 0 2 316 314 
8 0 6 0 0 0 1 317 
7 0 7 0 0 0 1 316 
10 0 9 0 0 0 2 320 318 
8 0 7 0 0 0 2 320 318 
5 0 10 0 0 0 1 319 
1 0 10 0 0 0 1 321 
7 0 10 0 0 0 1 321 
0 0 0 0 0 0 1 334 
0 0 0 0 0 0 2 323 332 
8 0 0 2 0 0 2 331 324 
7 0 0 9 0 0 2 330 325 
3 0 0 5 0 0 1 326 
4 0 0 10 0 0 1 327 
6 0 0 8 0 0 1 328 
4 0 0 10 0 0 1 329 
7 0 0 10 0 0 1 333 
4 0 0 10 0 0 1 333 
9 0 0 6 0 0 1 333 
7 0 0 5 0 0 1 333 
0 0 0 0 0 0 1 334 
0 0 0 0 0 0 0 
